0000000000000000
0000001100000000
0000011111000000
0000011111100000
0000001111100000
0000001111100000
0000000011100000
0000000011100000
0000000011100000
0000000011110000
0000000111110000
0000011111111000
0000011110110000
0000011110110000
0000000000010000
0000000000000000
